certificates/rado_a7_c6_N16.cnf
c Rad2 upper bound instance: x1 + 7*x2 - x3 = 6, interval [1,16]
p cnf 16 48
1 2 0
-1 -2 0
1 2 9 0
-1 -2 -9 0
1 3 16 0
-1 -3 -16 0
1 2 3 0
-1 -2 -3 0
2 10 0
-2 -10 0
1 3 4 0
-1 -3 -4 0
2 3 11 0
-2 -3 -11 0
1 4 5 0
-1 -4 -5 0
2 4 12 0
-2 -4 -12 0
1 5 6 0
-1 -5 -6 0
2 5 13 0
-2 -5 -13 0
1 6 7 0
-1 -6 -7 0
2 6 14 0
-2 -6 -14 0
1 7 8 0
-1 -7 -8 0
2 7 15 0
-2 -7 -15 0
1 8 9 0
-1 -8 -9 0
2 8 16 0
-2 -8 -16 0
1 9 10 0
-1 -9 -10 0
1 10 11 0
-1 -10 -11 0
1 11 12 0
-1 -11 -12 0
1 12 13 0
-1 -12 -13 0
1 13 14 0
-1 -13 -14 0
1 14 15 0
-1 -14 -15 0
1 15 16 0
-1 -15 -16 0
