certificates/rado_a7_c6_N16.drat
-15 -16 0
d -15 -1 -16 0
7 8 15 0
-2 15 0
-16 0
15 0
2 0
-1 0
-10 0
-7 0
3 0
11 0
9 0
8 0
6 0
0
